15 3 
6012	6012	6012	
612	373	408	
219	971	1013	
48	20	20	
502	62	63	
46	465	478	
817	866	870	
34	879	943	
965	745	767	
425	487	496	
283	497	517	
969	65	67	
380	195	209	
58	832	850	
281	693	735	
86	867	910	
